Name: Ing0708-3
Courses: 62
Rooms: 16
Days: 5
Periods_per_day: 5
Curricula: 55
Min_Max_Daily_Lectures: 2 3
UnavailabilityConstraints: 469
RoomConstraints: 122

COURSES:
c0012 t000 3 3 27 0
c0013 t001 4 3 16 0
c0014 t002 3 3 28 0
c0035 t003 3 3 12 0
c0036 t004 3 3 15 0
c0045 t005 3 3 110 0
c0052 t006 3 3 172 0
c0055 t007 3 3 60 0
c0057 t008 3 3 60 0
c0060 t009 3 3 100 0
c0094 t010 3 3 90 0
c0098 t011 3 3 80 0
c0104 t012 3 3 80 0
c0107 t013 3 3 90 0
c0112 t014 3 3 90 0
c0114 t015 3 3 80 0
c0116 t006 3 3 72 0
c0117 t016 3 3 72 0
c0177 t017 3 3 80 0
c0179 t018 3 3 80 0
c0181 t019 3 3 130 0
c0196 t020 6 4 56 1
c0198 t021 3 3 80 0
c0210 t022 3 3 130 0
c0214 t023 3 3 130 0
c0218 t024 3 3 105 0
c0223 t025 3 3 105 0
c0224 t026 3 3 126 0
c0226 t027 3 3 120 0
c0227 t028 3 3 80 0
c0233 t029 3 3 71 0
c0249 t030 3 3 75 0
c0254 t031 3 3 120 0
c0271 t032 3 3 120 0
c0409 t033 3 3 25 0
c0416 t029 3 3 37 0
c0420 t034 3 3 50 0
c0441 t035 5 4 69 0
c0456 t036 3 3 70 0
c0457 t037 3 3 74 0
c0465 t031 3 3 67 0
c0486 t038 3 2 40 0
c0489 t039 3 2 23 0
c0491 t040 3 1 8 0
c0498 t041 3 3 31 0
c0501 t042 3 3 15 0
c0506 t043 3 3 15 0
c0527 t044 3 3 37 0
c0670 t024 3 3 25 0
c0738 t045 3 2 24 0
c0745 t046 3 3 44 0
c0771 t047 3 3 10 0
c0773 t048 3 2 9 1
c0779 t049 3 3 3 0
c0798 t050 5 4 8 0
c0814 t000 5 4 5 0
c0828 t051 3 3 16 0
c0933 t052 3 3 25 0
c1007 t053 3 3 110 0
c1148 t054 3 3 12 0
c0741 t055 6 4 65 0
c0510 t056 5 4 72 1

ROOMS:
r25 40 0
r36 42 0
r37 42 0
r38 48 0
r34 50 0
r27 65 0
B 216 0
D 216 0
F 216 0
G 216 0
A 216 0
L 216 0
N 30 0
Er1 70 0
Er2 70 0
r51 78 0

CURRICULA:
q000 3 c0094 c0107 c0112 
q001 3 c0098 c0104 c0114 
q002 2 c0116 c0117 
q003 3 c0210 c0214 c0226 
q004 3 c0210 c0214 c0771 
q005 4 c0224 c0012 c0013 c0014 
q006 4 c0224 c0012 c0223 c0218 
q007 4 c0224 c0773 c0013 c0014 
q008 2 c0035 c0036 
q009 2 c0441 c0014 
q010 2 c0779 c0036 
q011 3 c0045 c0057 c1007 
q012 3 c0052 c0055 c0060 
q013 1 c0741 
q016 3 c0218 c0223 c0224 
q017 2 c0224 c0773 
q018 2 c0227 c0233 
q019 2 c0227 c0249 
q020 3 c0177 c0179 c0181 
q021 3 c0254 c0271 c0198 
q022 1 c0196 
q023 3 c1007 c0045 c0181 
q024 4 c0254 c0060 c0052 c0271 
q026 1 c0745 
q027 2 c0456 c0745 
q028 3 c0456 c0745 c0741 
q029 1 c0456 
q030 3 c0456 c0465 c0498 
q031 2 c0456 c0741 
q032 2 c0456 c0457 
q033 3 c0456 c0457 c0196 
q034 1 c0465 
q035 3 c0465 c0498 c0489 
q037 5 c0409 c0670 c0420 c0416 c0249 
q038 4 c0420 c0933 c0441 c0233 
q039 1 c0441 
q040 4 c0486 c0738 c0745 c0741 
q041 3 c0486 c0745 c0741 
q042 4 c0486 c0506 c0745 c0741 
q043 3 c0486 c0738 c0745 
q044 2 c0486 c0745 
q045 3 c0486 c0506 c0745 
q046 3 c0491 c0457 c0489 
q047 2 c0498 c0738 
q048 2 c0501 c0457 
q049 4 c0052 c0510 c0117 c0116 
q050 5 c0052 c0510 c0527 c0117 c0116 
q051 2 c0052 c0510 
q053 3 c0052 c0510 c0527 
q054 1 c0798 
q055 1 c0814 
q056 3 c0441 c0828 c1148 
q057 1 c0527 
q058 2 c0233 c0828 
q059 2 c0233 c0416 

UNAVAILABILITY_CONSTRAINTS:
c0012 4 2
c0012 4 3
c0012 4 4
c0013 0 2
c0013 0 3
c0013 0 4
c0013 1 2
c0013 1 3
c0013 1 4
c0013 2 2
c0013 2 3
c0013 2 4
c0013 3 2
c0013 3 3
c0013 3 4
c0013 4 2
c0013 4 3
c0013 4 4
c0014 0 2
c0014 1 2
c0014 2 2
c0014 3 2
c0014 4 0
c0014 4 1
c0014 4 2
c0014 4 3
c0014 4 4
c0036 0 0
c0036 0 4
c0036 1 0
c0036 1 4
c0036 2 0
c0036 2 4
c0036 3 0
c0036 3 4
c0036 4 0
c0036 4 4
c0045 0 0
c0045 0 4
c0045 1 0
c0045 1 4
c0045 2 4
c0045 3 0
c0045 3 4
c0045 4 0
c0045 4 1
c0045 4 2
c0045 4 3
c0045 4 4
c0052 0 0
c0052 1 2
c0052 1 3
c0052 1 4
c0052 2 0
c0052 2 1
c0052 2 2
c0052 2 4
c0052 3 4
c0055 0 0
c0055 0 4
c0055 1 4
c0055 2 4
c0055 3 0
c0055 3 4
c0055 4 0
c0055 4 4
c0057 0 0
c0057 0 4
c0057 1 0
c0057 1 4
c0057 2 0
c0057 2 4
c0057 3 0
c0057 3 4
c0057 4 0
c0057 4 3
c0057 4 4
c0094 0 3
c0094 0 4
c0094 1 3
c0094 1 4
c0094 2 3
c0094 2 4
c0094 3 3
c0094 3 4
c0094 4 3
c0094 4 4
c0098 0 0
c0098 0 1
c0098 0 2
c0098 0 3
c0098 0 4
c0104 0 2
c0104 1 2
c0104 2 2
c0104 3 2
c0104 4 0
c0104 4 1
c0104 4 2
c0104 4 3
c0107 0 4
c0107 1 4
c0107 2 4
c0107 3 4
c0107 4 3
c0107 4 4
c0112 0 4
c0112 1 4
c0112 2 4
c0112 3 0
c0112 3 1
c0112 3 2
c0112 3 3
c0112 3 4
c0112 4 0
c0112 4 1
c0112 4 2
c0112 4 3
c0112 4 4
c0114 0 0
c0114 1 0
c0114 2 3
c0114 2 4
c0114 3 0
c0114 3 1
c0114 3 2
c0114 3 3
c0114 3 4
c0114 4 0
c0116 0 0
c0116 1 2
c0116 1 3
c0116 1 4
c0116 2 0
c0116 2 1
c0116 2 2
c0116 2 4
c0116 3 4
c0117 0 2
c0117 1 2
c0117 2 2
c0117 2 3
c0117 2 4
c0117 3 2
c0117 4 2
c0117 4 3
c0117 4 4
c0177 0 0
c0177 0 2
c0177 0 4
c0177 1 0
c0177 1 2
c0177 1 4
c0177 2 2
c0177 2 4
c0177 3 2
c0177 3 4
c0177 4 0
c0177 4 2
c0177 4 3
c0177 4 4
c0179 0 0
c0179 0 2
c0179 0 4
c0179 1 2
c0179 1 4
c0179 2 2
c0179 2 4
c0179 3 0
c0179 3 2
c0179 3 4
c0179 4 0
c0179 4 2
c0179 4 3
c0179 4 4
c0181 0 0
c0181 0 2
c0181 0 4
c0181 1 0
c0181 1 2
c0181 1 4
c0181 2 0
c0181 2 2
c0181 2 4
c0181 3 0
c0181 3 2
c0181 3 4
c0181 4 0
c0181 4 2
c0181 4 3
c0181 4 4
c0196 0 0
c0196 0 1
c0196 0 2
c0196 4 0
c0196 4 1
c0196 4 2
c0196 4 3
c0196 4 4
c0198 0 0
c0198 0 1
c0198 0 2
c0198 0 3
c0198 0 4
c0198 1 2
c0198 2 2
c0198 2 3
c0198 2 4
c0198 3 2
c0198 3 3
c0198 3 4
c0198 4 2
c0198 4 4
c0210 0 2
c0210 0 3
c0210 0 4
c0210 1 2
c0210 1 3
c0210 1 4
c0210 2 2
c0210 2 3
c0210 2 4
c0210 3 2
c0210 3 3
c0210 3 4
c0210 4 2
c0210 4 3
c0210 4 4
c0214 0 4
c0214 1 2
c0214 1 3
c0214 1 4
c0214 2 4
c0214 3 4
c0214 4 0
c0214 4 1
c0214 4 2
c0214 4 3
c0214 4 4
c0218 4 2
c0218 4 3
c0218 4 4
c0223 0 0
c0223 0 2
c0223 1 2
c0223 2 2
c0223 3 2
c0223 4 0
c0223 4 2
c0223 4 4
c0224 1 4
c0224 2 4
c0224 3 4
c0224 4 0
c0224 4 1
c0224 4 2
c0224 4 3
c0224 4 4
c0226 0 4
c0226 1 4
c0226 2 0
c0226 2 1
c0226 2 2
c0226 2 3
c0226 2 4
c0226 3 0
c0226 3 1
c0226 3 2
c0226 3 4
c0226 4 3
c0226 4 4
c0227 0 0
c0227 0 1
c0227 0 2
c0227 0 3
c0227 4 1
c0227 4 2
c0227 4 3
c0227 4 4
c0254 3 0
c0254 3 1
c0254 3 2
c0254 3 3
c0254 3 4
c0271 0 0
c0271 0 4
c0271 1 0
c0271 2 0
c0271 3 0
c0271 3 4
c0271 4 0
c0271 4 4
c0420 0 0
c0420 0 1
c0420 0 2
c0420 0 3
c0420 0 4
c0420 1 0
c0420 1 1
c0420 1 2
c0441 1 2
c0441 2 2
c0441 3 0
c0441 3 1
c0441 3 2
c0441 3 3
c0441 3 4
c0441 4 2
c0441 4 3
c0441 4 4
c0456 0 0
c0456 0 1
c0456 0 2
c0456 0 3
c0456 0 4
c0456 4 0
c0456 4 1
c0456 4 2
c0456 4 3
c0456 4 4
c0457 0 2
c0457 1 2
c0457 2 2
c0457 3 2
c0457 4 1
c0457 4 2
c0457 4 3
c0457 4 4
c0465 3 0
c0465 3 1
c0465 3 2
c0465 3 3
c0465 3 4
c0486 0 0
c0486 0 1
c0486 0 2
c0486 0 3
c0486 0 4
c0486 1 0
c0486 3 0
c0486 3 1
c0486 3 2
c0486 3 3
c0486 3 4
c0486 4 0
c0486 4 1
c0486 4 2
c0486 4 3
c0486 4 4
c0489 0 0
c0489 0 1
c0489 1 3
c0489 1 4
c0489 2 0
c0489 2 1
c0489 2 2
c0489 2 3
c0489 2 4
c0489 3 0
c0489 3 1
c0489 3 2
c0489 3 3
c0489 3 4
c0489 4 0
c0489 4 1
c0489 4 2
c0489 4 3
c0489 4 4
c0498 0 2
c0498 1 2
c0498 1 4
c0498 2 2
c0498 3 2
c0498 4 2
c0498 4 3
c0498 4 4
c0501 0 0
c0501 0 1
c0501 0 2
c0501 0 3
c0501 0 4
c0501 1 0
c0501 2 0
c0501 4 4
c0506 0 0
c0506 0 4
c0506 1 4
c0506 2 4
c0506 3 4
c0506 4 2
c0506 4 3
c0506 4 4
c0527 0 0
c0527 0 1
c0527 0 2
c0527 0 3
c0527 0 4
c0738 0 0
c0738 0 1
c0738 0 2
c0738 0 3
c0738 0 4
c0738 1 0
c0738 1 1
c0738 1 2
c0738 1 3
c0738 1 4
c0738 2 0
c0738 2 1
c0738 2 2
c0738 3 2
c0738 3 3
c0738 3 4
c0738 4 0
c0738 4 1
c0738 4 2
c0738 4 3
c0738 4 4
c0745 0 0
c0745 0 1
c0745 4 3
c0745 4 4
c0771 1 1
c0771 2 1
c0771 3 1
c0933 0 0
c0933 0 2
c0933 1 2
c0933 2 2
c0933 2 3
c0933 2 4
c0933 3 2
c0933 4 2
c1007 0 2
c1007 0 3
c1007 0 4
c1007 1 2
c1007 1 3
c1007 1 4
c1007 2 2
c1007 2 3
c1007 2 4
c1007 3 2
c1007 3 3
c1007 3 4
c1007 4 2
c1007 4 3
c1007 4 4
c1148 0 0
c1148 0 2
c1148 1 0
c1148 1 2
c1148 2 0
c1148 2 2
c1148 3 2
c1148 4 2
c0741 0 4
c0741 1 2
c0741 1 3
c0741 1 4
c0741 3 1
c0741 3 2
c0741 3 3
c0741 3 4
c0510 0 0
c0510 0 1
c0510 0 2
c0510 0 3
c0510 0 4

ROOM_CONSTRAINTS:
c0012 Er1
c0012 Er2
c0013 Er1
c0013 Er2
c0014 Er1
c0014 Er2
c0035 Er1
c0036 Er1
c0045 Er1
c0045 Er2
c0052 Er1
c0052 Er2
c0055 Er1
c0055 Er2
c0057 Er1
c0057 Er2
c0060 Er1
c0060 Er2
c0094 Er1
c0094 Er2
c0098 Er1
c0098 Er2
c0104 Er1
c0104 Er2
c0107 Er1
c0107 Er2
c0112 Er1
c0112 Er2
c0114 Er1
c0114 Er2
c0116 Er1
c0116 Er2
c0117 Er1
c0117 Er2
c0177 Er1
c0177 Er2
c0179 Er1
c0179 Er2
c0181 Er1
c0181 Er2
c0196 Er1
c0196 Er2
c0198 Er1
c0198 Er2
c0210 Er1
c0210 Er2
c0214 Er1
c0214 Er2
c0218 Er1
c0218 Er2
c0223 Er1
c0223 Er2
c0224 Er1
c0224 Er2
c0226 Er1
c0226 Er2
c0227 Er1
c0227 Er2
c0233 Er1
c0233 Er2
c0249 Er1
c0249 Er2
c0254 Er1
c0254 Er2
c0271 Er1
c0271 Er2
c0409 Er1
c0409 Er2
c0416 Er1
c0416 Er2
c0420 Er1
c0420 Er2
c0441 Er1
c0441 Er2
c0456 Er1
c0456 Er2
c0457 Er1
c0457 Er2
c0465 Er1
c0465 Er2
c0486 Er1
c0486 Er2
c0489 Er1
c0489 Er2
c0491 Er1
c0491 Er2
c0498 Er1
c0498 Er2
c0501 Er1
c0501 Er2
c0506 Er1
c0506 Er2
c0527 Er1
c0527 Er2
c0670 Er1
c0670 Er2
c0738 Er1
c0738 Er2
c0745 Er1
c0745 Er2
c0771 Er1
c0771 Er2
c0773 Er1
c0773 Er2
c0779 Er1
c0779 Er2
c0798 Er1
c0798 Er2
c0814 Er1
c0814 Er2
c0828 Er1
c0828 Er2
c0933 Er1
c0933 Er2
c1007 Er1
c1007 Er2
c1148 Er1
c1148 Er2
c0741 Er1
c0741 Er2
c0510 Er1
c0510 Er2

END.
